; benchmark generated from python API
(set-info :status unknown)
(declare-fun A_1 () Real)
(declare-fun S_1 () Real)
(declare-fun L_0 () Real)
(declare-fun S_3 () Real)
(declare-fun S_4 () Real)
(declare-fun A_3 () Real)
(declare-fun S_2 () Real)
(declare-fun A_4 () Real)
(declare-fun Q_4 () Real)
(declare-fun S_0 () Real)
(declare-fun A_0 () Real)
(declare-fun A_2 () Real)
(assert
 (let (($x1504 (>= Q_4 0.0)))
 (let (($x164664 (not (<= 0.0 (+ Q_4 A_3 (* (- 1.0) S_4) S_0 (* (- 1.0) A_0))))))
 (let (($x161459 (<= 0.0 (+ (* (- 1.0) Q_4) A_4 (* (- 1.0) S_4) S_2 (* (- 1.0) A_3)))))
 (let (($x150461 (not $x161459)))
 (let ((?x842 (* (- 1.0) A_1)))
 (let ((?x830 (* (- 1.0) L_0)))
 (let ((?x1462 (* (- 1.0) S_4)))
 (let ((?x797 (* (- 1.0) Q_4)))
 (let (($x143705 (not (<= 0.0 (+ ?x797 A_4 ?x1462 A_0 ?x830 ?x842)))))
 (let (($x7997 (not (<= (+ S_4 (* (- 1.0) S_2) A_2 (* (- 1.0) A_3)) 0.0))))
 (let (($x1584 (<= Q_4 0.0)))
 (let (($x7304 (not $x1584)))
 (let (($x2938 (<= (+ A_3 ?x1462 ?x830) 0.0)))
 (let ((?x860 (* (- 1.0) A_3)))
 (let ((?x1482 (* (- 1.0) S_1)))
 (let ((?x1960 (* 3.0 S_2)))
 (let ((?x1773 (* (- 2.0) S_4)))
 (let (($x8022 (<= (+ ?x797 A_4 ?x842 ?x1773 ?x1960 ?x1482 A_0 ?x860) 0.0)))
 (let (($x176738 (not (<= (- 10.0) (+ A_1 ?x1462 S_0 (* (- 1.0) A_0))))))
 (let (($x174448 (not (<= (- 5.0) (+ A_2 ?x1462 S_0 (* (- 1.0) A_0))))))
 (let (($x168352 (<= (+ (* (- (/ 1.0 2.0)) S_4) (* (/ 1.0 2.0) A_1) (* (- (/ 1.0 2.0)) L_0)) (- 5.0))))
 (let (($x166291 (<= (+ Q_4 A_3 ?x1462 A_0 ?x830 ?x842) (- 5.0))))
 (let ((?x851 (* (- 1.0) A_2)))
 (let ((?x843 (* (- 1.0) A_0)))
 (let ((?x1951 (* 2.0 Q_4)))
 (let (($x164767 (<= (+ ?x1951 A_3 ?x1462 A_1 S_0 ?x843 ?x851) (- 5.0))))
 (let ((?x1475 (* (- (/ 1.0 2.0)) L_0)))
 (let ((?x1474 (* (/ 1.0 2.0) A_0)))
 (let ((?x2371 (* (- (/ 1.0 2.0)) A_2)))
 (let ((?x10052 (* (- (/ 1.0 2.0)) S_4)))
 (let ((?x4340 (* (/ 1.0 2.0) A_3)))
 (let (($x164670 (<= (+ ?x4340 ?x10052 ?x2371 ?x1474 ?x1475) (- 5.0))))
 (let (($x163850 (<= (+ (* (/ 1.0 2.0) A_2) ?x10052 ?x1474 ?x1475 (* (- (/ 1.0 2.0)) A_1)) (- 5.0))))
 (let (($x163544 (<= (+ (* (/ 1.0 3.0) A_0) (* (- (/ 1.0 3.0)) L_0) (* (- (/ 1.0 3.0)) S_4)) (- 5.0))))
 (let (($x36476 (<= (+ A_2 ?x1462 ?x830) (- 5.0))))
 (let (($x11803 (<= (+ ?x843 ?x1462 S_0 A_3) 0.0)))
 (let (($x4710 (<= (+ Q_4 A_3 ?x1462 (* 2.0 A_1) ?x830 ?x843 ?x851) 0.0)))
 (let (($x184092 (<= 0.0 (+ A_1 ?x1462 (* 2.0 A_4) S_0 ?x843 (* (- 2.0) A_3)))))
 (let (($x184093 (not $x184092)))
 (let ((?x1463 (* (- (/ 1.0 2.0)) A_0)))
 (let ((?x3660 (* (/ 1.0 2.0) S_0)))
 (let ((?x3684 (* (/ 1.0 2.0) A_1)))
 (let ((?x2305 (* (/ 1.0 2.0) A_4)))
 (let (($x179306 (not (<= 0.0 (+ ?x10052 ?x2305 ?x3684 ?x3660 ?x1463 ?x2371)))))
 (let ((?x4315 (* (- (/ 1.0 2.0)) A_3)))
 (let ((?x2306 (* (/ 1.0 2.0) A_2)))
 (let ((?x2304 (* (- (/ 1.0 2.0)) Q_4)))
 (let (($x169891 (not (<= 0.0 (+ ?x2304 ?x2305 ?x2306 ?x10052 ?x1463 ?x3660 ?x4315)))))
 (let (($x164538 (<= 0.0 (+ ?x797 A_4 ?x2306 ?x10052 ?x1474 ?x1475 (* (- (/ 1.0 2.0)) A_1) ?x860))))
 (let (($x164539 (not $x164538)))
 (let ((?x2319 (* 3.0 Q_4)))
 (let (($x3232 (<= (+ ?x2319 (* (- 3.0) A_4) (* 3.0 A_3) S_4 ?x843 L_0) 0.0)))
 (let (($x3246 (not (<= (+ ?x1951 (* (- 2.0) A_4) A_3 S_4 A_2 ?x843 L_0) 0.0))))
 (let (($x166748 (not (<= (+ A_2 ?x842) 5.0))))
 (let (($x172610 (not (<= (- 10.0) (+ A_2 ?x1462 A_0 ?x830 ?x842)))))
 (let ((?x1124 (+ A_1 ?x851)))
 (let (($x3579 (<= ?x1124 (- 5.0))))
 (let ((?x1479 (* (- (/ 1.0 2.0)) S_2)))
 (let ((?x1471 (* (- 1.0) S_3)))
 (let ((?x2372 (* (- (/ 1.0 2.0)) A_4)))
 (let ((?x10025 (* (/ 1.0 2.0) S_4)))
 (let (($x138349 (<= (+ ?x2306 ?x10025 ?x2372 ?x1471 ?x1479 ?x1475 ?x3660 ?x4340) 0.0)))
 (let ((?x3360 (* (- (/ 1.0 2.0)) A_1)))
 (let ((?x2313 (* (/ 1.0 2.0) Q_4)))
 (let (($x39330 (<= (+ ?x2313 ?x2372 ?x2306 ?x10025 ?x1471 ?x1474 ?x1475 ?x3360 ?x4340) 0.0)))
 (let (($x20028 (<= (+ ?x1474 (* (- (/ 1.0 2.0)) S_3) ?x1475) (- 5.0))))
 (let (($x8428 (<= (+ Q_4 (* (- 1.0) A_4) S_4 A_1 (* (- 1.0) S_2)) 0.0)))
 (let (($x3303 (<= (+ A_2 ?x1471 ?x830) 0.0)))
 (let (($x48747 (<= (+ A_2 ?x1462 ?x843 S_1) 0.0)))
 (let (($x6721 (<= (+ A_1 S_1 L_0 ?x843 ?x851) 0.0)))
 (let (($x5310 (<= (+ A_3 ?x1462 ?x842 S_1) 0.0)))
 (let (($x458912 (or (not (<= (+ ?x797 ?x842 S_1 (* (- 1.0) S_0) A_0) 0.0)) $x5310 $x6721 $x7304 $x48747 (not (<= 0.0 (+ A_2 ?x1462 ?x843 L_0 (* 2.0 S_1) ?x842))))))
 (let (($x2710 (<= (+ Q_4 (* (- 1.0) A_4) A_3 ?x842 A_2) 0.0)))
 (let (($x2675 (not $x2710)))
 (let (($x462728 (or $x2675 $x5310 $x7304 (not (<= 0.0 (+ ?x797 A_4 A_2 ?x1462 ?x842 S_1 ?x860))))))
 (let (($x161500 (not (<= 0.0 (+ Q_4 A_1 (* (- 1.0) S_2) S_0 ?x843)))))
 (let (($x4081 (<= (+ A_1 (* (- 1.0) S_2) ?x830) 0.0)))
 (let (($x163179 (not (<= 0.0 (+ Q_4 A_2 ?x1471 S_0 ?x843)))))
 (let (($x65317 (<= (+ ?x2313 ?x2372 ?x3684 ?x10025 ?x1471 ?x3660 ?x1463 ?x4340) 0.0)))
 (let (($x16284 (<= (+ A_0 (* (- 1.0) S_2) ?x830) (- 5.0))))
 (let (($x158146 (not (<= 0.0 (+ ?x797 A_4 ?x860 A_2 ?x1471 A_0 ?x830 ?x842)))))
 (let (($x27459 (<= (+ ?x797 (* (- 1.0) A_4) A_3 ?x842 S_3 (* (- 1.0) S_0) A_0) 0.0)))
 (let (($x27422 (not $x27459)))
 (let (($x3099 (<= (+ ?x1951 (* (- 2.0) A_4) (* 2.0 A_3) S_3 ?x843 L_0) 0.0)))
 (let (($x2261 (not (<= (+ ?x797 A_4 A_2 (* (- 2.0) A_3)) 0.0))))
 (let (($x7367 (not (= Q_4 0.0))))
 (let (($x466348 (or $x7367 $x11803 (not (<= 0.0 (+ ?x797 A_4 ?x860 A_0 ?x842))) (not (<= 0.0 (+ S_0 L_0 ?x843))) (not (<= 0.0 (+ ?x797 A_4 ?x3684 ?x10052 ?x1475 ?x860))) $x169891 $x179306)))
 (let ((?x11780 (* (- (/ 1.0 3.0)) S_4)))
 (let ((?x11726 (* (- (/ 1.0 3.0)) L_0)))
 (let ((?x11781 (* (/ 1.0 3.0) A_0)))
 (let (($x2948 (<= (+ Q_4 (* (- 1.0) A_4) (* 2.0 A_3) ?x851) 0.0)))
 (let (($x460250 (or $x2948 $x7304 (<= (+ ?x797 A_4 ?x11781 ?x11726 ?x11780 ?x860) 0.0) $x164539 $x169891 $x184093)))
 (let (($x70019 (<= (+ ?x2304 ?x2305 ?x2371 A_0 (* (- 1.0) S_2) ?x830) 0.0)))
 (let ((?x39356 (* (- (/ 1.0 4.0)) A_3)))
 (let ((?x39323 (* (/ 1.0 4.0) A_1)))
 (let ((?x10048 (* (- (/ 3.0 4.0)) L_0)))
 (let ((?x1507 (* (- 1.0) S_2)))
 (let ((?x10047 (* (/ 3.0 4.0) A_0)))
 (let ((?x10049 (* (/ 1.0 4.0) S_4)))
 (let ((?x39354 (* (- (/ 1.0 4.0)) A_2)))
 (let ((?x11073 (* (/ 1.0 4.0) A_4)))
 (let ((?x11078 (* (- (/ 1.0 4.0)) Q_4)))
 (let (($x39363 (<= (+ ?x11078 ?x11073 ?x39354 ?x10049 ?x10047 ?x1507 ?x10048 ?x39323 ?x39356) 0.0)))
 (let (($x16190 (not (<= (+ Q_4 (* (- 1.0) A_4) A_3 ?x843 S_2 L_0) 0.0))))
 (let (($x209116 (or $x2261 $x7304 $x16190 (<= (+ A_2 A_0 ?x1507 ?x830 ?x842) 0.0) (<= (+ ?x797 ?x830 ?x1507 A_1) 0.0) $x161500)))
 (let (($x2324 (<= (+ Q_4 (* (- 1.0) A_4) (* 3.0 A_2) (* (- 2.0) A_1)) 0.0)))
 (let (($x460405 (or (not $x2324) (not (<= (+ ?x797 A_4 ?x860 A_1 ?x851) 0.0)) $x4081 $x7304 $x16190 $x161500)))
 (let (($x3045 (<= (+ Q_4 (* (- 1.0) A_4) S_4 A_2 ?x1471) 0.0)))
 (let (($x167428 (<= (+ Q_4 A_2 ?x1462 ?x843 S_0) (- 5.0))))
 (let (($x165219 (not (<= (- 5.0) (+ A_3 ?x1462 A_0 ?x830 ?x842)))))
 (let (($x466751 (or $x2938 $x163850 (not (<= (+ A_4 ?x860) 5.0)) $x164664 $x165219 $x166748 $x167428 (not (<= (+ A_4 ?x851) 10.0)))))
 (let (($x448089 (or $x36476 $x164670 $x165219 $x172610 (not (<= (+ A_2 ?x1462 A_0 ?x830 ?x842) (- 10.0))) $x174448 (not (<= (+ A_3 ?x842) 10.0)))))
 (let (($x13498 (<= (+ (* (/ 2.0 3.0) A_1) (* (/ 1.0 3.0) S_4) ?x1471 (* (- (/ 2.0 3.0)) L_0)) 0.0)))
 (let (($x10012 (<= (+ ?x1474 ?x1475 ?x10025 ?x1471) 0.0)))
 (let (($x172005 (not (<= 0.0 (+ ?x797 A_4 ?x10052 (* (/ 1.0 2.0) S_1) ?x860)))))
 (let (($x165814 (not (<= 0.0 (+ ?x1462 A_4 S_1 ?x851)))))
 (let (($x471782 (or $x5310 $x7304 (not (<= (+ (* 2.0 A_1) S_4 ?x1482 (* (- 2.0) A_2)) 0.0)) $x165814 $x172005)))
 (let (($x22894 (<= (+ ?x4340 ?x10052 ?x2306 ?x1474 ?x1475 ?x842) 0.0)))
 (let (($x7250 (<= (+ ?x842 ?x1462 (* 2.0 S_2) L_0) 0.0)))
 (let (($x168495 (<= (+ Q_4 A_1 ?x1462 S_0 ?x843) (- 10.0))))
 (let ((?x2288 (* 2.0 S_0)))
 (let ((?x1963 (* 2.0 A_1)))
 (let (($x52290 (<= (+ ?x2319 A_3 ?x1462 ?x1963 ?x2288 L_0 (* (- 3.0) A_0) ?x851) 0.0)))
 (let (($x206886 (or $x7304 $x22894 $x52290 $x163544 $x163850 (not (<= (+ ?x860 S_4 A_2 ?x843 L_0) 10.0)) $x167428 $x168495)))
 (let (($x177022 (not (<= (+ ?x4315 ?x10025 ?x3684 ?x3660 L_0 (* (- (/ 3.0 2.0)) A_0) ?x2306) (/ 15.0 2.0)))))
 (let (($x466070 (or $x11803 $x163544 $x168352 $x177022 (not (<= (+ ?x4340 ?x10025 ?x3360 (* (- (/ 1.0 2.0)) S_0) ?x1474 ?x2371) (/ 15.0 2.0))) (not (<= (- (/ 5.0 2.0)) (+ ?x4340 ?x10052 ?x3684 ?x3660 ?x1463 ?x2371))) (not (<= (+ ?x4340 ?x10052 ?x3684 ?x3660 ?x1463 ?x2371) (- (/ 5.0 2.0)))))))
 (let (($x19975 (<= (+ ?x1474 (* (/ 1.0 2.0) S_3) (* (/ 1.0 2.0) L_0) ?x842) 0.0)))
 (let (($x19927 (not $x19975)))
 (let ((?x2325 (* (- 2.0) A_3)))
 (let ((?x2043 (* 2.0 A_4)))
 (let ((?x2042 (* (- 2.0) Q_4)))
 (let (($x2928 (<= (+ ?x2042 ?x2043 ?x2325 A_0 ?x1471 ?x830) 0.0)))
 (let (($x204426 (or $x2675 $x2938 $x7304 $x143705 $x164664 (not (<= 0.0 (+ ?x2304 ?x2305 ?x2306 ?x860))))))
 (let (($x165577 (not (<= 0.0 (+ A_3 ?x1462 (* 2.0 S_1) L_0 ?x843 ?x851)))))
 (let (($x6699 (<= (+ ?x1462 (* 3.0 S_1) (* 2.0 L_0) (* (- 2.0) A_0)) 0.0)))
 (let (($x2668 (not (<= (+ A_3 A_0 ?x830 ?x1482 ?x851) 0.0))))
 (let (($x191445 (or $x2668 $x2938 $x6699 $x7304 (not (<= (+ S_4 A_1 ?x1482 ?x860) 0.0)) $x164664 $x165577)))
 (let (($x6505 (<= (+ (* (/ 1.0 2.0) S_2) (* (/ 1.0 2.0) L_0) ?x1463 A_2 ?x860) 0.0)))
 (let (($x6481 (not (<= (+ A_1 (* (/ 1.0 2.0) S_2) (* (/ 1.0 2.0) L_0) ?x1463 ?x851) 0.0))))
 (let (($x20715 (<= (+ A_1 ?x1471 ?x830) (- 5.0))))
 (let (($x15924 (<= (+ (* 2.0 A_2) ?x1471 A_0 ?x830 (* (- 2.0) A_1)) 0.0)))
 (let (($x191388 (or $x3303 $x7304 $x15924 $x20028 $x20715 $x163179 (not (<= (- 5.0) (+ A_1 ?x1471 S_0 ?x843))))))
 (let (($x31615 (<= (+ A_1 S_4 (* (- 1.0) A_4) ?x1471 ?x1507 S_0 ?x843 A_2) 0.0)))
 (let (($x168544 (<= (+ Q_4 A_3 ?x1462 A_1 ?x830 ?x851) (- 5.0))))
 (let (($x158614 (<= (+ ?x842 A_0) (- 5.0))))
 (let (($x10051 (<= (+ ?x10047 ?x10048 ?x10049 ?x1507) 0.0)))
 (let (($x5908 (<= (+ A_2 ?x1471 ?x842 S_1) 0.0)))
 (let ((?x26968 (* (/ 1.0 3.0) A_2)))
 (let ((?x11749 (* (- (/ 2.0 3.0)) L_0)))
 (let ((?x11747 (* (/ 2.0 3.0) A_0)))
 (let ((?x11736 (* (/ 1.0 3.0) S_4)))
 (let ((?x24631 (* (- (/ 1.0 3.0)) A_3)))
 (let ((?x2017 (* (- (/ 1.0 3.0)) Q_4)))
 (let (($x30498 (<= (+ ?x2017 ?x24631 ?x11736 ?x11747 ?x11749 ?x1507 ?x26968) 0.0)))
 (let (($x2915 (<= (+ ?x797 A_4 ?x860 A_0 ?x830 ?x1507) 0.0)))
 (let (($x23625 (<= (+ (* 2.0 A_2) ?x1462 (* (- 2.0) A_1) S_1) 0.0)))
 (let (($x18219 (<= (+ Q_4 A_3 ?x1462 ?x843 L_0 (* 2.0 S_1) ?x851) 0.0)))
 (let ((?x11785 (* (- (/ 2.0 3.0)) A_0)))
 (let ((?x21788 (* (/ 2.0 3.0) S_0)))
 (let ((?x2021 (* (/ 2.0 3.0) A_1)))
 (let ((?x2031 (* (/ 2.0 3.0) Q_4)))
 (let (($x55903 (<= (+ ?x2031 ?x2021 ?x11736 ?x1471 ?x21788 ?x11785) 0.0)))
 (let (($x2688 (<= (+ ?x843 ?x1471 L_0 (* 2.0 S_1)) 0.0)))
 (let ((?x4531 (* (- 2.0) A_2)))
 (let ((?x2357 (* 2.0 A_0)))
 (let ((?x2255 (* (- 2.0) S_1)))
 (let ((?x39561 (* 8.0 S_2)))
 (let ((?x49739 (* (- 6.0) S_4)))
 (let ((?x2012 (* (- 2.0) A_1)))
 (let (($x46618 (<= (+ ?x2042 ?x2043 ?x2012 ?x49739 ?x39561 ?x2255 ?x2357 ?x4531) 0.0)))
 (let (($x6853 (<= (+ ?x797 ?x842 ?x1462 (* 2.0 S_2) ?x1482 A_0) 0.0)))
 (let (($x5436 (<= (+ Q_4 A_3 ?x1462 S_2 ?x851) 0.0)))
 (let (($x81035 (<= (+ ?x797 ?x860 S_4 (* (/ 3.0 2.0) A_0) (* (- (/ 1.0 2.0)) S_3) ?x1475 ?x1482) 0.0)))
 (let (($x30034 (<= (+ ?x2313 ?x4315 ?x10025 A_2 ?x1471 ?x1474 ?x1475 ?x3360) 0.0)))
 (let ((?x11468 (+ Q_4 A_2 ?x1471 S_0 ?x843)))
 (let (($x10564 (<= ?x11468 0.0)))
 (let (($x153324 (or $x2928 $x3303 $x10564 (not (<= (+ Q_4 A_3 ?x1462 A_2 ?x842 S_0 ?x843) 0.0)) $x30034 $x81035)))
 (let (($x16239 (<= (+ S_3 ?x2357 (* (- 3.0) S_2) (* (- 2.0) L_0)) 0.0)))
 (let (($x33107 (<= (+ ?x797 ?x860 S_4 ?x2357 ?x1507 ?x830 ?x1482) 0.0)))
 (let (($x20702 (<= (+ ?x860 S_4 A_1 ?x1471) 0.0)))
 (let (($x17240 (<= (+ Q_4 A_3 ?x1462 ?x1474 ?x1475 (* (/ 1.0 2.0) S_2) ?x842) 0.0)))
 (let ((?x4959 (+ Q_4 A_3 ?x1462 S_0 ?x843)))
 (let (($x4966 (<= ?x4959 0.0)))
 (let (($x2004 (<= (+ ?x797 A_4 ?x842 (* (- 3.0) S_4) ?x1960) 0.0)))
 (let ((?x2066 (* (- 3.0) L_0)))
 (let ((?x1977 (* (- 3.0) S_2)))
 (let ((?x5467 (* 4.0 A_0)))
 (let (($x52695 (<= (+ ?x797 A_4 ?x851 S_4 ?x5467 ?x1977 ?x2066 ?x1482 ?x860) 0.0)))
 (let ((?x1615 (* (- 2.0) L_0)))
 (let ((?x1393 (* (- 2.0) S_2)))
 (let ((?x2065 (* 3.0 A_0)))
 (let (($x34680 (<= (+ ?x797 ?x851 S_4 ?x2065 ?x1393 ?x1615 ?x1482) 0.0)))
 (let (($x22960 (<= (+ ?x2313 ?x2372 ?x2371 (* (/ 1.0 2.0) S_3) A_1 ?x1507 ?x3660 ?x1463 ?x4340) 0.0)))
 (let (($x32232 (<= (+ ?x860 S_4 A_2 ?x1471 A_0 ?x1507 ?x830) 0.0)))
 (let ((?x23326 (* (/ 2.0 3.0) A_3)))
 (let ((?x15483 (* (- (/ 1.0 3.0)) A_2)))
 (let ((?x7421 (* (- (/ 2.0 3.0)) A_4)))
 (let (($x34139 (<= (+ ?x2031 ?x7421 ?x15483 ?x11736 A_1 ?x1507 ?x21788 ?x11785 ?x23326) 0.0)))
 (let (($x32620 (<= (+ ?x4315 ?x10025 ?x3684 ?x1471 ?x3660 ?x1463 ?x2306) 0.0)))
 (let (($x13357 (<= (+ ?x2304 ?x4315 ?x10025 ?x3684 ?x1471 ?x1475 ?x2306) 0.0)))
 (let (($x4101 (<= (+ ?x797 A_4 ?x860 A_1 ?x1471 ?x830) 0.0)))
 (let (($x30103 (<= (+ ?x2313 ?x4340 ?x10052 A_2 ?x1474 ?x1475 (* (- (/ 3.0 2.0)) A_1)) 0.0)))
 (let ((?x17514 (* (/ 2.0 3.0) A_2)))
 (let ((?x11740 (* (/ 2.0 3.0) S_4)))
 (let ((?x30422 (* (- (/ 2.0 3.0)) A_3)))
 (let ((?x2113 (* (- (/ 2.0 3.0)) Q_4)))
 (let (($x27710 (<= (+ ?x2113 ?x30422 ?x11740 ?x11781 ?x1471 ?x11726 ?x17514) 0.0)))
 (let (($x16019 (<= (+ A_2 ?x1471 ?x843 S_0) 0.0)))
 (let (($x23240 (<= (+ A_4 A_0 ?x1507 ?x830 ?x860) 0.0)))
 (let ((?x3346 (+ Q_4 A_1 ?x1507 S_0 ?x843)))
 (let (($x3023 (<= ?x3346 0.0)))
 (let (($x2263 (<= (+ Q_4 (* (- 1.0) A_4) ?x851 (* 2.0 S_3) ?x1963 ?x1393) 0.0)))
 (let (($x33418 (<= (+ Q_4 (* (- 1.0) A_4) ?x4340 ?x10025 ?x3684 ?x1507 ?x3660 ?x1463 ?x2306) 0.0)))
 (let ((?x28959 (+ (* (/ 3.0 5.0) Q_4) (* (- (/ 3.0 5.0)) A_4) (* (/ 3.0 5.0) A_1) (* (/ 2.0 5.0) S_4) ?x1507 (* (/ 3.0 5.0) S_0) (* (- (/ 3.0 5.0)) A_0) (* (/ 3.0 5.0) A_2))))
 (let (($x28960 (<= ?x28959 0.0)))
 (let (($x34698 (<= (+ ?x797 ?x851 S_4 ?x2357 ?x1977 ?x1615 A_1) 0.0)))
 (let (($x166762 (<= (+ ?x1462 S_1) (- 10.0))))
 (let (($x166839 (<= (+ Q_4 A_3 ?x1462 A_0 ?x830 ?x851) (- 10.0))))
 (let (($x455558 (or $x2928 $x16019 (<= (+ ?x2017 ?x24631 ?x11736 ?x11747 (* (/ 1.0 3.0) L_0) ?x842 ?x26968) 0.0) $x32620 (not (<= (+ A_0 L_0 S_3 ?x2012) 0.0)))))
 (let (($x83045 (<= (+ ?x797 A_4 ?x851 S_3 ?x2065 ?x1393 ?x1615 ?x1482 ?x860) 0.0)))
 (let (($x57423 (<= (+ ?x797 ?x851 S_3 ?x2357 ?x1507 ?x830 ?x1482) 0.0)))
 (let (($x34109 (<= (+ ?x2031 ?x7421 ?x17514 ?x11736 ?x1471 ?x21788 ?x11785 ?x23326) 0.0)))
 (let (($x198224 (or $x1584 $x3303 $x10012 $x34109 $x39330 (<= (+ A_1 ?x10025 (* (- (/ 1.0 2.0)) S_3) ?x851) 0.0))))
 (let (($x446492 (or $x2938 $x4966 $x36476 $x163544 $x166291 $x166748 $x167428 (<= (+ Q_4 A_2 ?x1462 A_0 ?x830 ?x842) (- 10.0)))))
 (let ((?x11039 (* (- (/ 3.0 4.0)) A_4)))
 (let ((?x11031 (* (/ 3.0 4.0) Q_4)))
 (let ((?x65428 (+ ?x11031 ?x11039 (* (/ 3.0 4.0) A_1) ?x10049 ?x1507 (* (/ 3.0 4.0) S_0) (* (- (/ 3.0 4.0)) A_0) (* (/ 3.0 4.0) A_3))))
 (let (($x8568 (<= (+ ?x797 A_4 ?x851 ?x1462 (* 2.0 S_2) ?x1482 A_0 ?x860) 0.0)))
 (let (($x5442 (<= (+ ?x797 S_2 ?x1482 A_0 ?x851) 0.0)))
 (let (($x4466 (<= (+ ?x797 A_4 ?x851 ?x1773 (* 2.0 S_2)) 0.0)))
 (let (($x3304 (<= (+ A_3 ?x1462 ?x851 S_2) 0.0)))
 (let (($x5162 (<= (+ Q_4 (* (- 1.0) A_4) (* 2.0 A_3) ?x1462 ?x842 S_2) 0.0)))
 (let ((?x8460 (* 2.0 A_2)))
 (let ((?x2309 (* (- 2.0) A_0)))
 (let ((?x1746 (* (- 2.0) S_3)))
 (let ((?x1982 (* (- 2.0) A_4)))
 (let ((?x1121 (+ A_2 ?x860)))
 (let (($x13822 (<= ?x1121 (- 5.0))))
 (let (($x645 (<= (+ Q_4 (* (- 1.0) A_4) A_3) (- 5.0))))
 (let (($x463880 (or $x645 $x1584 $x13822 $x20028 $x20715 (<= (+ ?x1951 ?x1982 ?x1963 ?x1746 ?x2288 ?x2309 ?x8460) (- 30.0)))))
 (let (($x169178 (or $x2938 $x4966 $x36476 (<= (+ Q_4 A_1 ?x851) (- 5.0)) $x163544 $x163850 $x166291 $x166839 $x167428 $x168352 $x168495)))
 (let ((?x1490 (* 2.0 S_2)))
 (let ((?x2310 (* 2.0 A_3)))
 (let ((?x892 (* (- 1.0) A_4)))
 (let (($x195733 (or $x1584 $x2004 $x5162 (<= (+ Q_4 ?x892 ?x2310 ?x1462 ?x842 ?x1490 ?x1482 A_0 ?x851) 0.0) $x6853 $x8022 $x46618)))
 (let ((?x7454 (* (/ 1.0 3.0) A_1)))
 (let ((?x19575 (* (/ 1.0 3.0) S_3)))
 (let ((?x2019 (* (/ 1.0 3.0) A_4)))
 (let (($x29628 (<= (+ ?x2017 ?x2019 ?x15483 ?x19575 ?x11747 ?x1507 ?x11749 ?x7454 ?x24631) 0.0)))
 (let (($x15496 (<= (+ ?x2304 ?x2371 (* (/ 1.0 2.0) S_3) ?x1474 ?x1507 ?x1475 ?x3684) 0.0)))
 (let (($x166772 (<= (+ Q_4 ?x892 A_1 ?x1462 S_0 ?x843 A_2) (- 20.0))))
 (let (($x452125 (or $x1584 $x4081 $x16239 (<= (+ ?x2031 ?x7421 ?x2021 ?x19575 ?x1507 ?x21788 ?x11785 ?x23326) 0.0))))
 (let (($x451434 (or $x2938 $x4966 $x158614 (<= 0.0 (+ ?x3684 ?x851 ?x4340)) $x164767 $x168352 $x168495 $x168544)))
 (let (($x2703 (<= (+ Q_4 A_3 ?x1462 S_1 ?x842) 0.0)))
 (let (($x451563 (or $x2703 $x2938 $x4966 $x6699 $x18219 (<= (+ Q_4 A_2 ?x1462 ?x843 L_0 (* 2.0 S_1) ?x842) 0.0) $x48747 (<= (+ Q_4 A_2 ?x1462 ?x2309 L_0 S_1 S_0) 0.0))))
 (let (($x219594 (or $x3303 $x4101 $x10564 $x13357 (<= (+ ?x10047 (* (/ 1.0 4.0) L_0) ?x10049 ?x842) 0.0) $x32620)))
 (let (($x49949 (<= (+ Q_4 ?x892 A_2 ?x1471 ?x2309 L_0 S_1 S_0 A_3) 0.0)))
 (let (($x32236 (<= (+ Q_4 ?x892 A_2 ?x1471 ?x843 L_0 (* 2.0 S_1) ?x842 A_3) 0.0)))
 (let (($x450103 (or $x3303 $x3579 $x10564 $x20028 (<= (+ Q_4 A_2 ?x1471 A_0 ?x830 ?x842) (- 5.0)))))
 (let (($x4310 (<= (+ ?x2304 ?x4315 ?x1474 (* (/ 1.0 2.0) S_3) ?x1475 ?x1507 ?x2306) 0.0)))
 (let (($x3689 (<= (+ ?x2313 ?x2372 ?x3684 (* (/ 1.0 2.0) S_3) ?x1507 ?x3660 ?x1463 ?x2306) 0.0)))
 (let (($x2914 (not $x2948)))
 (let (($x193459 (or $x2914 $x2928 $x4101 $x13357 $x27710 $x32620 (<= 0.0 (+ ?x2113 (* (/ 2.0 3.0) A_4) ?x7454 ?x860)))))
 (let (($x48906 (<= (+ ?x2313 ?x2372 ?x2306 ?x10052 (* (- (/ 3.0 2.0)) A_0) L_0 S_1 ?x3660 ?x4340) 0.0)))
 (let ((?x2009 (* 3.0 S_1)))
 (let ((?x1489 (* 2.0 L_0)))
 (let (($x449835 (or $x1584 (<= (+ ?x11785 (* (/ 2.0 3.0) L_0) ?x11780 S_1) 0.0) (not (<= (+ ?x2306 ?x10052 ?x1463 (* (/ 1.0 2.0) L_0) S_1 ?x3360) 0.0)) (<= (+ Q_4 ?x892 A_2 ?x1462 ?x2309 ?x1489 ?x2009 ?x842 A_3) 0.0) $x48747 $x48906)))
 (let (($x23420 (<= (+ ?x2306 ?x10052 ?x1463 (* (/ 1.0 2.0) L_0) S_1 ?x3360) 0.0)))
 (let (($x1417 (<= (+ ?x1463 (* (/ 1.0 2.0) L_0) ?x1462 (* (/ 3.0 2.0) S_2)) 0.0)))
 (let ((?x17476 (+ A_2 ?x1471 A_0 ?x830 ?x842)))
 (let (($x164692 (<= ?x17476 (- 5.0))))
 (let (($x223184 (or $x645 $x1584 $x36476 $x163544 (<= (+ Q_4 ?x892 A_2 ?x1462 A_0 ?x830 ?x842 A_3) (- 15.0)) (<= (+ ?x2313 ?x2372 ?x2306 ?x10052 ?x1463 ?x3660 ?x4340) (- 5.0)) $x168352 (<= (+ Q_4 ?x892 A_1 ?x1462 S_0 ?x843 A_3) (- 15.0)))))
 (let (($x19948 (<= (+ ?x860 S_4 ?x1474 (* (- (/ 1.0 2.0)) S_3) (* (/ 1.0 2.0) L_0)) 0.0)))
 (let (($x447496 (or $x1584 (not (<= (+ A_3 ?x851) 5.0)) (<= (+ ?x892 A_3) (- 5.0)) $x163544 $x166772 $x168352)))
 (let (($x165795 (<= (+ Q_4 ?x892 A_1 ?x1507 S_0 ?x843 A_2) (- 10.0))))
 (let (($x166119 (<= (+ Q_4 ?x892 A_2 ?x1471 S_0 ?x843 A_3) (- 5.0))))
 (let (($x451904 (or $x1584 $x3303 $x20028 $x166119 $x166748 (<= (+ Q_4 ?x892 A_2 ?x1471 A_0 ?x830 ?x842 A_3) (- 10.0)))))
 (let (($x182214 (or $x3303 $x10012 $x10564 $x13498 (<= (+ ?x2031 ?x17514 ?x11736 ?x1471 ?x11747 ?x11749 (* (- (/ 2.0 3.0)) A_1)) 0.0) $x55903)))
 (let ((?x1470 (* (/ 1.0 2.0) L_0)))
 (let ((?x1432 (* (/ 3.0 2.0) S_2)))
 (let (($x447921 (or $x3304 (<= (+ ?x2304 ?x2305 ?x2371 ?x1462 S_2) 0.0) (<= (+ ?x2304 ?x2305 ?x2371 ?x1462 ?x1463 ?x1432 ?x1470 ?x3684 ?x4315) 0.0) (<= (+ ?x797 ?x851 ?x1462 ?x843 ?x1490 L_0 A_1) 0.0))))
 (let (($x45973 (<= (+ ?x851 S_3 A_0 ?x1507) 0.0)))
 (let (($x5237 (<= (+ ?x860 A_1 S_3 ?x1507) 0.0)))
 (let (($x181250 (or $x3303 $x10564 $x20028 $x20715 (<= (+ Q_4 A_1 ?x1471 S_0 ?x843) (- 5.0)) $x164692)))
 (let (($x203604 (or $x3303 $x6721 $x7304 $x163179 (not (<= 0.0 (+ A_2 ?x1471 S_1 ?x842))))))
 (let (($x2921 (<= (+ ?x1951 ?x1982 ?x2310 ?x843 L_0 S_2) 0.0)))
 (let (($x163566 (<= (+ (* (/ 1.0 3.0) Q_4) (* (- (/ 1.0 3.0)) A_4) ?x7454) (- 5.0))))
 (let (($x211705 (or $x1584 $x3303 $x20028 $x20715 $x164692 $x166119 (<= (+ Q_4 ?x892 A_1 ?x1471 S_0 ?x843 A_3) (- 10.0)))))
 (let (($x163231 (<= (+ ?x11031 ?x11039 ?x10047) (- 15.0))))
 (let (($x162621 (<= (+ Q_4 ?x892 A_2) (- 10.0))))
 (let (($x101158 (or $x3303 $x10564 $x19948 $x20702 (<= (+ ?x2313 ?x4315 ?x10025 ?x1474 ?x1470 ?x3360) 0.0))))
 (let (($x204741 (or $x2261 $x5908 $x7304 (not (<= (+ Q_4 ?x892 A_3 S_3 ?x1482) 0.0)))))
 (let (($x202573 (or $x1584 $x4081 $x16284 (<= (+ Q_4 ?x892 A_1 ?x1507 S_0 ?x843 A_3) (- 5.0)))))
 (let (($x174111 (or $x3045 $x20028 $x20715 (<= (+ ?x3684 ?x10025 ?x2372 ?x1471 ?x3660 ?x1463 ?x2306) (- (/ 5.0 2.0))))))
 (let (($x11784 (<= (+ (* (- (/ 1.0 3.0)) A_0) (* (/ 1.0 3.0) L_0) (* (- (/ 2.0 3.0)) S_4) S_2) 0.0)))
 (let (($x30052 (<= (+ ?x2304 ?x4315 ?x10025 ?x1474 ?x1507 ?x1475 ?x3684) 0.0)))
 (let (($x10064 (<= (+ (* (- (/ 7.0 4.0)) A_0) (* (/ 3.0 4.0) L_0) (* (- (/ 1.0 4.0)) S_4) S_0 A_1) 0.0)))
 (let ((?x28938 (+ (* (/ 4.0 5.0) Q_4) (* (- (/ 4.0 5.0)) A_4) (* (/ 4.0 5.0) A_1) (* (/ 6.0 5.0) S_4) ?x1746 (* (/ 4.0 5.0) S_0) (* (- (/ 4.0 5.0)) A_0) (* (/ 4.0 5.0) A_2))))
 (let (($x165118 (<= 0.0 (+ ?x797 A_4 ?x2357 ?x1615 ?x2255 ?x851))))
 (let (($x19935 (<= (+ ?x1463 (* (- (/ 1.0 2.0)) S_3) ?x1470 S_1) 0.0)))
 (let (($x2706 (<= (+ Q_4 ?x892 A_3 ?x843 L_0 S_1) 0.0)))
 (let (($x166711 (or $x1584 $x2706 (<= (+ ?x11031 ?x11039 (* (- (/ 9.0 4.0)) A_0) (* 3.0 L_0) ?x2009) 0.0) $x165118)))
 (let (($x3855 (<= (+ ?x797 A_4 ?x860 ?x1471 S_1) 0.0)))
 (let (($x212086 (or $x3855 $x5908 (<= (+ ?x2304 ?x4315 ?x10025 ?x1471 (* (/ 1.0 2.0) S_1) ?x2306) 0.0))))
 (let (($x4087 (<= (+ Q_4 ?x892 A_3 ?x842 S_2 L_0) 0.0)))
 (let (($x460583 (or $x1584 (<= (+ Q_4 ?x892 ?x2012 ?x1960 (* 3.0 L_0)) 0.0) $x4087)))
 (let (($x41 (>= A_1 A_0)))
 (let (($x42 (>= A_2 A_1)))
 (let (($x43 (>= A_3 A_2)))
 (let (($x44 (>= A_4 A_3)))
 (and $x44 $x43 $x42 $x41 (or $x1417 $x3304) (or $x3304 $x7250) (or $x5237 $x16239) (or $x2688 $x5908) (or $x2915 $x4310 $x5237) (or $x5237 $x16284) (or $x8428 $x10051) (or $x8428 $x16284) (or $x8428 $x16239) (or $x3304 (<= (+ ?x1462 ?x843 S_2 L_0 S_1) 0.0)) (or $x1584 (<= (+ ?x2031 ?x7421 (* (- (/ 1.0 3.0)) A_1) S_3 L_0) 0.0)) (or $x1584 (<= (+ ?x11031 ?x11039 (* (- (/ 1.0 4.0)) A_0) L_0 S_3) 0.0)) (or $x2938 $x4966 $x5436 (not (<= (+ ?x1963 ?x1507 ?x830 ?x843) 0.0)) $x7250) $x460583 (or $x5162 $x5436 $x11784) (or $x5237 $x10051) (or $x2915 $x5237 $x30498) (or $x4081 $x7304 $x16284 $x161500) (or $x2915 (<= (+ ?x797 ?x860 A_1 S_3 ?x1507) 0.0)) (or $x5908 (<= (+ ?x1471 S_1) (- 5.0))) (or $x2915 $x8428 $x30052) (or $x8428 (<= (+ ?x860 S_4 A_0 ?x1507) 0.0)) $x212086 (or $x5908 (<= (+ ?x11736 ?x1471 (* (/ 2.0 3.0) S_1)) 0.0)) (or $x4081 $x7304 $x10051 $x161500) (or $x2915 $x4081 $x7304 $x161500) (or $x1584 $x2706 $x6699 $x165118) $x166711 (or $x8428 (<= (+ ?x851 S_4 ?x2357 ?x1393 ?x830) 0.0)) (or $x5237 (<= (+ ?x851 S_4 ?x2357 ?x1393 ?x830) 0.0)) (or $x5237 (<= (+ ?x860 S_4 A_0 ?x1507) 0.0)) (or $x2688 $x5237 $x32232) (or $x2915 $x5237 $x30052) (or $x3045 $x20028 $x20702) (or $x1584 $x2706 $x19935 $x165118) (or $x3023 $x4081 $x16239) (or $x1584 $x3689 $x4081 $x16239) (or $x5908 $x20028 $x20702) (or $x2928 $x5908 $x20702 $x27710) (or $x5310 $x5436 $x11784) (or $x5237 $x20028 $x32232) (or $x5237 $x10012) (or $x3045 $x10012 (<= (+ ?x2031 ?x7421 ?x2021 S_4 ?x1471) 0.0)) (or $x3045 $x10012 $x20702) (or $x5908 $x10012 $x20702) (or $x3023 $x4081 (<= (+ S_4 ?x1471 ?x2357 ?x1393 ?x1615) 0.0)) (or $x3023 $x4081 $x10051) (or $x2928 $x3045 $x20702 $x27710) (or $x3304 (<= (+ ?x1462 S_2) (- 5.0))) (or $x3023 $x4081 $x45973) (or $x2688 $x8428 $x32232) (or $x2915 $x3023 $x4081 $x4310) (or $x4081 $x3023 (<= (+ ?x851 S_4 ?x2357 ?x1393 ?x830) 0.0)) (or $x5908 $x10012 $x13498 $x65317) (or $x3045 $x10012 $x13498 $x65317) (or $x3045 $x10012 $x13498 (<= ?x28938 0.0)) (or $x1584 $x3303 $x10012 (not $x10064) $x13498 $x34109 $x65317) (or $x1584 (<= (+ ?x2313 ?x2372 ?x2371 S_3 L_0) 0.0)) (or $x1584 $x2263 $x10051) (or $x1584 $x2263 (<= (+ ?x851 S_4 ?x2357 ?x1393 ?x830) 0.0)) (or $x1584 $x2263 $x45973) (or $x3023 $x4081 $x16284) (or $x2915 $x3023 $x4081 $x30052) (or $x5310 $x5436 $x7250) (or $x5310 $x6505 $x7997) (or $x3045 $x19948 $x20702) (or $x1584 $x4087 $x7250) (or $x1584 $x2921 $x11784) (or $x5908 $x19948 $x20702) (or $x2915 $x3045 $x20702 $x30498) (or $x2915 $x3023 $x4081 $x30498) (or $x3045 $x20028 (<= (+ S_4 ?x892 A_1 ?x1471) (- 5.0))) $x174111 (or $x1584 $x2263 $x15496 $x29628 $x70019) (or $x1584 $x2263 $x16239) (or $x1584 $x2263 $x16284) (or $x3579 $x5310 (<= (+ A_2 ?x1462 ?x842 S_1) (- 5.0))) (or $x3023 $x4081 $x19948 $x32232) (or $x3023 $x4081 (<= (+ ?x860 S_4 A_0 ?x1507) 0.0)) $x202573 (or $x645 $x1584 $x3579 $x162621 $x163544) (or $x3045 $x19935) (or $x645 $x1584 $x3579 $x20028 $x162621) (or $x2915 $x5237 $x33107) (or $x2915 $x8428 $x30498) (or $x2928 $x3045 (<= (+ ?x797 ?x860 S_4 ?x1471 A_1) 0.0)) (or $x2915 $x5237 $x32232 (<= (+ ?x797 ?x860 S_4 ?x1471 A_1) 0.0)) (or $x3855 $x5908 $x7304) $x204741 (or $x2668 $x2703 $x2938 $x4966 $x6699 $x18219) (or $x1584 (<= (+ ?x2031 ?x7421 ?x2021 S_3 ?x1507) 0.0) $x16239) (or $x3023 $x4081 $x15496 $x29628 $x70019) (or $x2688 $x3303 $x10564 (<= (+ Q_4 A_2 ?x1471 S_1 ?x842) 0.0)) (or $x5162 $x5436 $x7250) (or $x5310 $x5436 (<= (+ ?x1462 S_2) (- 5.0))) (or $x2668 $x5310 $x166762 (<= (+ Q_4 A_3 ?x1462 S_1 ?x851) (- 5.0))) (or $x2915 $x3023 $x4081 $x33107) (or $x2915 $x8428 $x33107) $x101158 (or $x2688 $x3303 $x7304 $x39330 $x161500) (or $x645 $x1584 $x3579 $x16284 $x162621) (or $x645 $x1584 $x3579 $x162621 $x163231) (or $x8428 $x45973) (or $x8428 $x10012 $x32232) (or $x3303 $x10012 $x10564 $x13498 $x39330 $x65317) $x211705 (or $x5310 $x23625 $x166762 (<= (+ Q_4 A_3 ?x1462 S_1 ?x851) (- 5.0))) (or $x1584 $x4081 $x10051 $x28960 $x33418) (or $x2915 $x5908 $x20702 $x30498) (or $x4081 $x7304 $x29628 $x70019 $x161500) (or $x4081 $x7304 $x45973 $x161500) (or $x5908 $x20028 $x20715 $x65317) (or $x3045 $x20028 $x20715 $x65317) (or $x645 $x1584 $x2324 $x163544 $x163566) (or $x3045 $x16284 $x20702) (or $x645 $x1584 $x2324 $x163231 $x163566) (or $x645 $x1584 $x2324 $x16284 $x163566) (or $x645 $x1584 $x2324 $x20028 $x163566) (or $x2915 (<= (+ ?x797 ?x860 S_3 ?x1482 A_0) 0.0) $x5237) (or $x4081 $x7304 (<= (+ ?x851 S_4 ?x2357 ?x1393 ?x830) 0.0) $x161500) (or $x1584 $x4081 $x16284 $x34139) (or $x2688 $x3023 $x4081 $x32232) (or $x3023 $x4081 $x10012 $x32232) (or $x645 $x1584 (<= (+ ?x1462 S_2) (- 5.0))) (or $x5162 $x5436 (<= (+ ?x1462 S_2) (- 5.0))) (or (<= (+ Q_4 ?x892 ?x843 ?x1489 ?x1490) 0.0) $x1584 $x2921) $x203604 (or $x3303 $x3579 $x7304 $x163179 (not (<= (- 5.0) ?x17476))) (or $x645 $x1584 $x13822 $x166762) (or $x1584 $x2263 $x57423 $x70019 $x83045) $x181250 (or $x5237 $x45973) (or $x5237 $x15496 $x70019) (or $x2915 $x5237 $x34698) (or $x8428 $x20028 $x32232) (or $x8428 $x34698 $x39363 $x70019) (or $x5908 $x16284 $x20702) (or $x3045 $x20702 (<= (+ ?x860 S_4 A_0 ?x1507) 0.0)) (or $x3045 $x10051 $x20702) $x447921 (or $x2915 $x3023 $x4081 $x32232 $x81035) (or $x5237 $x34680 $x70019) (or $x5237 $x57423 $x70019) $x182214 (or $x1584 $x2948 $x4081 $x16284 $x165795) $x451904 (or $x645 $x1584 $x4081 $x16284 $x165795) $x447496 (or $x4081 $x7304 $x16190 $x70019 $x161500) (or $x5237 $x19948 $x32232) (or $x2915 $x5237 $x32232 $x81035) (or $x2928 $x3045 $x20702 $x81035) (or $x8428 $x19948 $x32232) (or $x2915 $x3023 $x4081 $x34680) (or $x1584 $x4081 $x22960 (<= (+ ?x851 S_4 ?x2357 ?x1393 ?x830) 0.0)) (or $x3303 $x10564 $x20702 (<= (+ ?x860 S_4 A_0 ?x1507) 0.0)) (or $x1584 $x4081 $x10051 $x22960) (or $x2928 $x3045 $x4101 $x13357 $x27710 $x32620) (or $x2928 $x3045 $x20702 $x33107) (or (<= (+ ?x797 A_4 ?x860 A_0 ?x842) 0.0) $x4101 $x7304 $x10564 $x27422) (or $x5908 $x20702 (<= (+ ?x860 S_4 A_0 ?x1507) 0.0)) $x223184 (or $x2938 $x4966 $x5436 (<= (+ ?x1462 S_2) (- 5.0)) $x166291) (or $x1584 $x4081 $x34139 (<= (+ S_4 ?x1471 ?x2357 ?x1393 ?x1615) 0.0)) (or $x3023 $x4081 $x57423 $x70019 $x83045) (or $x2938 $x7304 $x7997 (<= (+ ?x1462 S_2) (- 5.0)) $x164664 $x166291) (or $x3303 $x7304 $x20028 $x20715 $x65317 $x163179 $x164692) (or $x1417 $x2938 $x4966 $x5436 $x17240) (or $x8428 (<= (+ S_4 ?x1471 ?x2357 ?x1393 ?x1615) 0.0)) (or $x2688 $x3303 (<= (+ Q_4 A_2 ?x1471 S_1 ?x842) 0.0) $x49949) (or $x5310 $x6699 $x18219 $x23625) (or $x5310 $x6721 $x23420) (or $x5436 $x7304 $x150461) $x449835 $x193459 (or $x8428 $x15496 $x29628 $x70019) (or $x1584 $x2915 $x3689 $x4081 $x4310) $x450103 (or $x2688 $x3303 $x7304 $x39330 $x163179) (or $x2668 $x5310 $x6699 $x165577) (or $x4466 $x5162 $x5436 $x6853 $x8568) (or $x1584 $x2688 $x3303 $x32236 $x49949) (or $x2928 $x8428 $x32232 (<= (+ ?x797 ?x860 S_4 ?x1471 A_1) 0.0)) $x219594 $x451563 $x451434 $x452125 (or $x3303 $x10564 $x20028 $x20702 $x164692) (or $x5310 $x7304 $x7997 $x8022) (or $x3023 $x4081 $x20028 $x32232) (or $x2928 $x3023 $x4081 $x32232 (<= (+ ?x797 ?x860 S_4 ?x1471 A_1) 0.0)) (or $x1584 $x2948 $x36476 $x163544 $x163850 $x166772 $x167428 $x168352) (or $x645 $x1584 $x36476 $x163544 $x163850 $x166772 $x167428 $x168352) (or $x1584 $x4081 $x16284 $x22960) (or $x1584 $x4081 $x10051 $x34139) (or $x1584 $x4081 $x15496 $x22960 $x29628 $x70019) (or $x1584 $x4081 $x22960 $x45973) (or $x2928 $x13498 $x16019 $x27710 $x30034 $x32620) (or $x2928 $x3303 $x10564 $x30034 (<= (+ ?x797 ?x860 S_4 ?x1471 A_1) 0.0)) (or $x4081 $x7304 $x16239 $x161500) $x195733 (or $x2004 $x5162 $x5436 $x6853 $x8022 $x46618) $x169178 $x463880 (or $x2004 $x3304 $x6853 $x8022) (or $x4466 $x5162 $x5442 (<= (+ A_1 S_4 ?x1507 ?x851) 0.0) $x8568) (or $x3304 $x4466 $x5442 $x8568) (or $x1584 $x4081 $x10051 (<= ?x65428 0.0)) (or $x2928 $x3303 $x10564 $x20702 $x27710 $x30103) (or $x8428 $x34680 $x70019 $x83045) (or $x1584 $x4081 $x16239 $x22960) $x446492 (or $x3303 $x10051 $x10564 $x20702) $x198224 (or $x5908 $x10051 $x20702) (or $x3023 $x4081 $x23240 $x34698 $x70019) (or $x1584 $x4081 $x22960 $x57423 $x70019 $x83045) (or $x1584 $x4081 $x22960 $x34698 $x39363 $x70019) $x455558 (or $x2675 $x13357 $x16019 $x27710 $x30103 $x32620) (or $x1584 $x4081 $x34139 (<= (+ ?x851 S_4 ?x2357 ?x1393 ?x830) 0.0)) (or $x2938 $x4710 $x4966 $x36476 $x163544 $x163850 $x164767 $x166291 $x166839 $x167428 $x168352 $x168495) (or $x5310 $x23625 $x166762 (not (<= (- 5.0) (+ A_3 ?x1462 S_1 ?x851)))) (or $x1584 $x4081 $x34139 $x34698 $x39363 $x70019) (or $x1584 $x2263 $x34698 $x39363 $x70019) (or $x1584 $x2915 $x4081 $x28960 $x30498 $x33418) (or $x1584 $x2263 $x34680 $x52695 $x70019) (or $x2915 $x3303 $x10564 $x20702 $x30498) (or $x8428 $x34680 $x52695 $x70019) (or $x3023 $x4081 $x23240 $x34680 $x70019) (or $x2928 $x16019 $x19927 $x27710 $x30103 $x32620) (or $x2710 $x4101 $x13357 $x19975 $x32620) (or $x1584 $x4081 $x34139 $x34680 $x52695 $x70019) (or $x2928 $x8428 $x32232 $x81035) (or $x3303 $x10012 $x10564 $x15924 $x20702) (or $x1584 $x4081 $x22960 $x34680 $x52695 $x70019) (or $x2004 $x2938 $x4966 $x5436 $x6853 $x8022 $x17240 $x46618) (or $x2928 $x3303 $x10564 $x20702 $x33107) (or $x3303 $x10564 $x16284 $x20702) (or $x2928 $x3303 $x10564 $x15924 $x20702 $x81035) (or $x4081 $x16239 $x31615) $x153324 (or $x5310 $x5436 $x6853 $x8022 $x46618) (or $x2688 $x3303 $x8428 $x39330 $x138349) (or $x2914 $x5310 $x7304 $x165814) (or $x3303 $x7304 $x10012 $x13498 $x15924 $x65317 $x163179) (or $x3303 $x7304 $x10012 $x39330 $x55903 $x163179) (or $x5310 $x7304 $x18219 $x23625 $x172005) (or $x4081 $x10051 $x31615) (or $x2915 $x4081 $x30498 $x31615) (or $x2675 (<= (+ ?x797 A_4 ?x860 A_0 ?x842) 0.0) $x3303 $x7304 $x163179) (or $x3045 $x4081 $x10051 $x65317) (or $x4081 $x5908 $x10051 $x65317) (or $x4081 $x5908 $x16284 $x65317) (or $x11803 $x36476 $x158614 $x164767 $x167428 $x168352 $x168495 $x168544) (or $x11803 $x36476 $x158614 $x164767 $x167428 $x168352 $x168544 $x176738) (or $x4081 $x16284 $x31615) $x191388 (or $x2938 $x6481 $x6505 $x7304 $x7997 $x164664) $x191445 $x204426 (or $x2928 $x3303 $x7304 $x19927 $x27422 $x158146 $x163179) $x466070 $x206886 (or $x5310 $x7250 $x7997) (or $x2938 $x7250 $x7304 $x7997 $x22894 $x164664) (or $x5310 $x7304 $x7997 $x150461) $x471782 (or $x4081 $x7304 $x10051 $x65317 $x163179) (or $x3303 $x7304 $x10012 $x13498 $x39330 $x161500) (or $x3303 $x8428 $x10012 $x39330 $x138349) $x448089 $x466751 (or $x3045 $x4081 $x16284 $x65317) $x460405 $x209116 (or $x3303 $x3579 $x7304 $x20028 $x39330 $x163179) (or $x5310 $x7997 (<= (+ ?x1462 S_2) (- 5.0))) (or $x4081 $x7304 $x39363 $x70019 $x161500) $x460250 $x466348 (or $x2261 (not $x3099) $x3303 $x7304 $x27422 $x158146 $x163179) (or $x4081 $x7304 $x16284 $x65317 $x163179) (or $x3303 $x4081 $x7304 $x20028 $x39330 $x161500) $x462728 $x458912 (or $x3303 $x8428 $x20028 $x39330 $x138349) (or $x2938 $x3579 $x7304 $x36476 $x164664 $x166291 $x172610 $x174448) (or $x2938 $x7304 $x36476 $x163850 $x164664 $x166291 $x166748 $x174448) (or $x3246 (not $x3232) $x7304 $x11803 $x143705 $x164539 $x169891 $x179306 $x184093) (or $x4710 $x11803 $x36476 $x163544 $x163850 $x164670 $x164767 $x166291 $x168352 $x174448 $x176738) (or $x2938 $x7304 $x7997 $x8022 $x143705 $x164664) (or $x2938 $x7304 $x7997 $x143705 $x150461 $x164664) (<= (+ ?x1471 S_2) 0.0) $x1504 (<= (+ (* (- 3.0) S_1) (* 3.0 S_0)) 0.0) (<= (+ L_0 S_2 ?x851) 0.0) (<= (+ ?x843 L_0 S_0) 0.0) (<= (+ Q_4 ?x892 S_4 L_0) 0.0) (<= (+ ?x1507 S_1) 0.0) (<= (+ ?x860 S_3 L_0) 0.0) (<= (+ ?x1462 S_3) 0.0) (<= (+ L_0 S_1 ?x842) 0.0)))))))))))))))))))))))))))))))))))))))))))))))))))))))))))))))))))))))))))))))))))))))))))))))))))))))))))))))))))))))))))))))))))))))))))))))))))))))))))))))))))))))))))))))))))))))))))))))))))))))))))))))))))))))))))))))))))))))))))))))))))))))))))))))))))))))))))))))))))))))))))))))))))))))))))))))))))))))))
(check-sat)
